NumGames = 7;
NumReferees = 27;
NumFields = 4;
game_id = [3355, 3357, 3366, 3367, 3372, 3373, 3376];
game_start = [1110, 780, 790, 1240, 710, 1240, 615];
game_end = [1230, 900, 910, 1360, 830, 1360, 735];
difficulty = [2, 2, 1, 1, 1, 1, 1];
game_field = [1, 2, 3, 3, 3, 3, 4];
referee_id = [1206, 3111, 3116, 3133, 3256, 3257, 3260, 3262, 3263, 3475, 3517, 3524, 3533, 3539, 3613, 3640, 7484, 7486, 7490, 7494, 7498, 7503, 7506, 7523, 7530, 7533, 7538];
main_exp = [277, 23, 11, 24, 45, 8, 147, 105, 135, 25, 34, 12, 31, 12, 0, 1, 1, 14, 2, 1, 2, 18, 1, 5, 7, 6, 5];
assist_exp = [151, 62, 15, 44, 51, 18, 99, 79, 101, 27, 14, 61, 43, 97, 0, 32, 17, 66, 12, 12, 24, 59, 42, 0, 0, 24, 3];
available_slots = array3d(1..NumReferees, 1..3, 1..2,[
  780,1290, 0,0, 0,0,
  0,1440, 0,0, 0,0,
  0,1440, 0,0, 0,0,
  0,1440, 0,0, 0,0,
  1080,1260, 0,0, 0,0,
  780,1260, 0,0, 0,0,
  1080,1248, 0,0, 0,0,
  0,1440, 0,0, 0,0,
  420,1110, 0,0, 0,0,
  1110,1260, 0,0, 0,0,
  780,1380, 0,0, 0,0,
  0,1440, 0,0, 0,0,
  0,1440, 0,0, 0,0,
  0,1440, 0,0, 0,0,
  720,960, 0,0, 0,0,
  0,1020, 0,0, 0,0,
  0,1440, 0,0, 0,0,
  780,930, 0,0, 0,0,
  690,990, 0,0, 0,0,
  720,1260, 0,0, 0,0,
  0,1440, 0,0, 0,0,
  0,1440, 0,0, 0,0,
  0,1440, 0,0, 0,0,
  0,1440, 0,0, 0,0,
  0,1440, 0,0, 0,0,
  0,1440, 0,0, 0,0,
  0,1440, 0,0, 0,0,
]);